decision_x1=[0,2];
decision_x2=[0,2];
decision_x3=[0,2];
decision_x4=[0,2];
decision_x5=[0,2];
random_y1=[0,2];
constraint_x2_x1=[
0,1,1.9|
0,2,0.71|
1,0,3.2|
1,2,5.4|
2,0,3.2|
2,1,8.1|
];
constraint_x3_x1=[
0,1,4|
0,2,6.7|
1,0,4.6|
1,2,8.2|
2,0,4.5|
2,1,8.8|
];
constraint_x4_x3=[
0,1,6.2|
0,2,5.2|
1,0,5.4|
1,2,8.5|
2,0,2.1|
2,1,1.5|
];
constraint_x5_x1=[
0,1,7.2|
0,2,2.3|
1,0,4|
1,2,4.8|
2,0,2.5|
2,1,3.1|
];
constraint_x5_x4=[
0,1,7.6|
0,2,0.83|
1,0,5.6|
1,2,6.7|
2,0,9.9|
2,1,4.8|
];
constraint_x1_y1=[
0,0,4.4|
0,1,9.6|
0,2,0.54|
1,0,5.6|
1,1,1.3|
1,2,2.4|
2,0,6.3|
2,1,2.3|
2,2,7.3|
];
initial_distribution_y1=[0.13,0.39,0.49];
transition_y1=[
0.35,0.26,0.39|
0.27,0.44,0.29|
0.76,0.11,0.13|
];
